NAME: input12_without_R
TYPE: TSP
COMMENT: input12 sem deposito R. Ordem: 1=A 2=B 3=C 4=D 5=E 6=F 7=G 8=H 9=I 10=J 11=K 12=L
DIMENSION: 12
EDGE_WEIGHT_TYPE: EXPLICIT
EDGE_WEIGHT_FORMAT: UPPER_ROW
EDGE_WEIGHT_SECTION
3 4 7 4 10 8 6 7 5 12 7
3 4 1 7 5 7 4 4 9 4
3 4 6 4 4 5 7 8 7
3 3 1 7 2 4 5 4
6 4 8 3 3 8 3
2 6 3 5 2 5
6 3 5 4 5
9 11 8 11
2 5 2
7 2
5
EOF
